NAME: generated_12_sym_1_60_UniformDistrib_noSparse.tsp
TYPE: TSP
COMMENT: Test case generated with custom generator!
DIMENSION: 12
EDGE_WEIGHT_TYPE: EXPLICIT
EDGE_WEIGHT_FORMAT: FULL_MATRIX
DISPLAY_DATA_TYPE: TWOD_DISPLAY
EDGE_WEIGHT_SECTION
0 6 26 8 41 33 53 33 14 54 36 58 
6 0 26 37 13 19 8 30 53 28 17 25 
26 26 0 42 50 38 24 20 35 26 22 16 
8 37 42 0 40 57 6 20 45 20 13 13 
41 13 50 40 0 14 24 37 47 14 22 36 
33 19 38 57 14 0 41 18 45 13 52 32 
53 8 24 6 24 41 0 27 3 19 45 14 
33 30 20 20 37 18 27 0 7 18 56 22 
14 53 35 45 47 45 3 7 0 59 24 17 
54 28 26 20 14 13 19 18 59 0 33 29 
36 17 22 13 22 52 45 56 24 33 0 19 
58 25 16 13 36 32 14 22 17 29 19 0 
